\ This file was automatically generated by Zimpl
\ var a1 >= 0 <=1;
\ var a2 >= 0 <=1;
\ var b1 >= 0 <=1;
\ var b2 >= 0 <=1;
\ var c1 >= 0 <=1;
\ var c2 >= 0 <=1;
\ var w1 >= 0 <=1;
\ var w2 >= 0 <=1;
\ var w3 >= 0 <=1;
\ var n1 >= 0 <=1;
\ var n2 >= 0 <=1;
\ var n3 >= 0 <=1;
\ var n12 >=0 <=1;
\ subto constraint1:     2*w1 + w2 + w3 == 1.001;
\ subto constraint2:     a1 + b2 + c2 <= 1;
\ subto constraint3:     a2 + b1 + c2 <= 1;
\ subto constraint4:     a2 + b2 + c1 <= 1;
\ subto constraint5:     a1 >= a2;
\ subto constraint6:     b1 >= b2;
\ subto constraint7:     c1 >= c2;
\ subto constraint8:     w1 == n1*a1 + (1-n1)*a2;
\ subto constraint9:     w2 == n2*b1 + (1-n2)*b2;
\ subto constraint10:     w3 == n3*c1 + (1-n3)*c2;
\ subto constraint11:     w1+0.001 >= w2;
\ subto constraint12:     w1+0.001 >= w3;
\ subto constraint13:     a1 + b1 + c2 <= 1;
\ subto constraint14:     a1 + b2 + c1 <= 1;
\ subto constraint15:     a2 + b1 + c1 <= 1;
\ subto constraint16:     a1 + b1 + c1 >= 1;
\ subto constraint17:     n12 == n1*n2;
\ maximize objective:     n12*n3;
\Problem name: case1.zpl
Maximize
 objective:  + [ +2 n3 * n12 ]/2

Subject to
 constraint1_1:
  + w3 + w2 +2 w1 = 1.001
 constraint2_1:
  + c2 + b2 + a1 <= 1
 constraint3_1:
  + c2 + b1 + a2 <= 1
 constraint4_1:
  + c1 + b2 + a2 <= 1
 constraint5_1:
  - a2 + a1 >= 0
 constraint6_1:
  - b2 + b1 >= 0
 constraint7_1:
  - c2 + c1 >= 0
 constraint8_1:
  + w1 -1 a2 + [ -1 n1 * a1 +1 n1 * a2 ]
 = 0
 constraint9_1:
  + w2 -1 b2 + [ -1 b1 * n2 +1 b2 * n2 ]
 = 0
 constraint10_1:
  + w3 -1 c2 + [ -1 c1 * n3 +1 c2 * n3 ]
 = 0
 constraint11_1:
  - w2 + w1 >= -0.001
 constraint12_1:
  - w3 + w1 >= -0.001
 constraint13_1:
  + c2 + b1 + a1 <= 1
 constraint14_1:
  + c1 + b2 + a1 <= 1
 constraint15_1:
  + c1 + b1 + a2 <= 1
 constraint16_1:
  + c1 + b1 + a1 >= 1
 constraint17_1:
  + n12 + [ -1 n1 * n2 ]
 = 0
Bounds
 0 <= a1 <= 1
 0 <= a2 <= 1
 0 <= b1 <= 1
 0 <= b2 <= 1
 0 <= c1 <= 1
 0 <= c2 <= 1
 0 <= w1 <= 1
 0 <= w2 <= 1
 0 <= w3 <= 1
 0 <= n1 <= 1
 0 <= n2 <= 1
 0 <= n3 <= 1
 0 <= n12 <= 1
End
